'hugeuniform119'
150 100 100
150
149
149
148
147
146
145
144
140
139
137
133
131
131
131
131
130
130
129
127
125
123
123
122
121
121
120
118
117
117
112
109
109
107
107
104
103
101
100
97
96
92
91
90
89
84
83
82
77
71
70
69
69
67
67
62
61
61
61
59
58
57
56
56
55
55
53
52
51
51
51
51
50
48
48
48
47
47
44
43
42
40
36
34
33
32
26
24
15
13
9
8
6
6
4
4
3
2
1
0
